p cnf 11 24
-11 -10 9 0
11 -10 -3 0
-11 10 1 0
-11 9 -1 0
-11 -9 1 0
-11 4 3 0
11 -3 1 0
11 3 -1 0
9 8 6 0
-9 -8 5 0
-9 -6 -3 0
9 -4 -2 0
-9 -3 -1 0
-8 -7 5 0
-8 -7 4 0
8 7 2 0
8 5 4 0
-8 5 -4 0
8 -4 2 0
-7 4 2 0
-7 4 1 0
-6 4 -3 0
-4 3 1 0
-4 2 1 0
